decision_x1=[0,2];
decision_x2=[0,2];
decision_x3=[0,2];
decision_x4=[0,2];
decision_x5=[0,2];
decision_x6=[0,2];
decision_x7=[0,2];
decision_x8=[0,2];
decision_x9=[0,2];
decision_x10=[0,2];
decision_x11=[0,2];
decision_x12=[0,2];
random_y1=[0,2];
random_y2=[0,2];
random_y3=[0,2];
random_y4=[0,2];
random_y5=[0,2];
random_y6=[0,2];
random_y7=[0,2];
random_y8=[0,2];
random_y9=[0,2];
random_y10=[0,2];
random_y11=[0,2];
random_y12=[0,2];
constraint_x2_x1=[
0,0,8.8|
0,1,9.5|
0,2,9.2|
1,0,8.9|
1,1,5.5|
1,2,7.6|
2,0,6.8|
2,1,4.5|
2,2,6.2|
];
constraint_x4_x1=[
0,0,1.8|
0,1,0.85|
0,2,3.9|
1,0,3.9|
1,1,8.6|
1,2,1.7|
2,0,5.7|
2,1,9|
2,2,3.4|
];
constraint_x4_x3=[
0,0,9|
0,1,9.6|
0,2,8.6|
1,0,0.25|
1,1,4.5|
1,2,4.9|
2,0,2.6|
2,1,9.2|
2,2,3.1|
];
constraint_x5_x1=[
0,0,8.7|
0,1,7.3|
0,2,6.4|
1,0,4.5|
1,1,1.2|
1,2,7.1|
2,0,2.4|
2,1,6.4|
2,2,6.5|
];
constraint_x6_x2=[
0,0,6.9|
0,1,2.1|
0,2,3.6|
1,0,6.4|
1,1,9.7|
1,2,0.58|
2,0,5.5|
2,1,4.7|
2,2,1.3|
];
constraint_x6_x4=[
0,0,5.1|
0,1,3.3|
0,2,5.8|
1,0,7.8|
1,1,9.4|
1,2,5.1|
2,0,7.8|
2,1,3.1|
2,2,9.6|
];
constraint_x6_x5=[
0,0,5.3|
0,1,9.7|
0,2,6.5|
1,0,6.6|
1,1,5.3|
1,2,3.8|
2,0,9.5|
2,1,9|
2,2,1.9|
];
constraint_x7_x2=[
0,0,8|
0,1,5.6|
0,2,6.9|
1,0,0.45|
1,1,2.5|
1,2,3.5|
2,0,4|
2,1,6.3|
2,2,4.6|
];
constraint_x7_x3=[
0,0,1.3|
0,1,5.2|
0,2,0.67|
1,0,8.4|
1,1,6.5|
1,2,7.4|
2,0,6.5|
2,1,3|
2,2,2.5|
];
constraint_x7_x4=[
0,0,6.5|
0,1,2.6|
0,2,2.9|
1,0,2|
1,1,3.1|
1,2,8.6|
2,0,9.7|
2,1,9.7|
2,2,9.1|
];
constraint_x8_x1=[
0,0,4.9|
0,1,4|
0,2,6.7|
1,0,7.3|
1,1,6.1|
1,2,0.9|
2,0,7.2|
2,1,4.4|
2,2,3.9|
];
constraint_x8_x4=[
0,0,8.8|
0,1,4.4|
0,2,4.9|
1,0,7|
1,1,8.3|
1,2,1.8|
2,0,7.2|
2,1,7.3|
2,2,3.4|
];
constraint_x8_x6=[
0,0,8.9|
0,1,5.3|
0,2,8.3|
1,0,7.3|
1,1,1|
1,2,1.6|
2,0,0.26|
2,1,1.9|
2,2,9.2|
];
constraint_x9_x3=[
0,0,6.6|
0,1,4.4|
0,2,6.6|
1,0,9.7|
1,1,1.5|
1,2,1.8|
2,0,2.1|
2,1,3.6|
2,2,1.7|
];
constraint_x9_x6=[
0,0,3.8|
0,1,4.5|
0,2,1.5|
1,0,7.3|
1,1,2.1|
1,2,7.8|
2,0,9.8|
2,1,5.9|
2,2,0.061|
];
constraint_x9_x7=[
0,0,3.7|
0,1,4.1|
0,2,9.5|
1,0,4.9|
1,1,3.2|
1,2,5.5|
2,0,3.8|
2,1,7|
2,2,4.4|
];
constraint_x9_x8=[
0,0,2.2|
0,1,9.8|
0,2,6.1|
1,0,1.8|
1,1,1|
1,2,5.5|
2,0,8.8|
2,1,9.1|
2,2,9.6|
];
constraint_x10_x1=[
0,0,0.86|
0,1,5.9|
0,2,9.5|
1,0,0.44|
1,1,6.7|
1,2,8.6|
2,0,3.3|
2,1,6.3|
2,2,3.3|
];
constraint_x10_x4=[
0,0,9.4|
0,1,0.47|
0,2,2.8|
1,0,4.9|
1,1,0.73|
1,2,6.5|
2,0,2.2|
2,1,8.8|
2,2,4.8|
];
constraint_x10_x6=[
0,0,6.4|
0,1,5.3|
0,2,6.5|
1,0,6.3|
1,1,2.9|
1,2,6.6|
2,0,7.9|
2,1,9.2|
2,2,6|
];
constraint_x10_x7=[
0,0,6.1|
0,1,6.6|
0,2,6.8|
1,0,0.037|
1,1,1.2|
1,2,2.3|
2,0,9.7|
2,1,5.6|
2,2,3.5|
];
constraint_x11_x5=[
0,0,2.4|
0,1,5.4|
0,2,2.2|
1,0,7.2|
1,1,7|
1,2,1.8|
2,0,8.6|
2,1,2.4|
2,2,7.9|
];
constraint_x11_x6=[
0,0,3|
0,1,7.2|
0,2,9|
1,0,9.2|
1,1,6|
1,2,7.3|
2,0,7.7|
2,1,4.4|
2,2,3.3|
];
constraint_x11_x7=[
0,0,2|
0,1,2.9|
0,2,2.8|
1,0,8.3|
1,1,7.7|
1,2,2.3|
2,0,9.8|
2,1,6.3|
2,2,4.7|
];
constraint_x11_x8=[
0,0,5.3|
0,1,7.3|
0,2,6.1|
1,0,5.4|
1,1,5|
1,2,8.1|
2,0,7.6|
2,1,4.1|
2,2,2.9|
];
constraint_x11_x10=[
0,0,6.3|
0,1,7.8|
0,2,2.7|
1,0,0.38|
1,1,1.4|
1,2,0.0095|
2,0,6.9|
2,1,3.8|
2,2,3.9|
];
constraint_x12_x1=[
0,0,9.4|
0,1,2.2|
0,2,6.1|
1,0,5.5|
1,1,4.1|
1,2,0.2|
2,0,4.6|
2,1,8.6|
2,2,8.9|
];
constraint_x12_x2=[
0,0,3|
0,1,9.9|
0,2,8.6|
1,0,7.7|
1,1,3.7|
1,2,3.6|
2,0,9.5|
2,1,8.4|
2,2,9.4|
];
constraint_x12_x3=[
0,0,6.6|
0,1,4.1|
0,2,3.4|
1,0,2.7|
1,1,2.5|
1,2,0.54|
2,0,6.2|
2,1,6.1|
2,2,8.9|
];
constraint_x12_x4=[
0,0,5.5|
0,1,0.37|
0,2,7.8|
1,0,0.29|
1,1,0.0026|
1,2,0.56|
2,0,9.5|
2,1,6.1|
2,2,4.3|
];
constraint_x12_x6=[
0,0,4.5|
0,1,1.9|
0,2,7.8|
1,0,3.6|
1,1,0.44|
1,2,5|
2,0,3.3|
2,1,9.9|
2,2,8.1|
];
constraint_x12_x7=[
0,0,8.2|
0,1,2|
0,2,6.2|
1,0,4.9|
1,1,3.3|
1,2,0.78|
2,0,2.9|
2,1,8.8|
2,2,8.7|
];
constraint_x12_x11=[
0,0,5.9|
0,1,7.5|
0,2,6.8|
1,0,0.5|
1,1,0.81|
1,2,9.2|
2,0,5|
2,1,7.1|
2,2,5.3|
];
constraint_x1_y1=[
0,0,8.9|
0,1,6.7|
0,2,0.71|
1,0,5.8|
1,1,0.66|
1,2,0.75|
2,0,8.7|
2,1,7.8|
2,2,1.5|
];
constraint_x2_y2=[
0,0,9|
0,1,5.5|
0,2,6.2|
1,0,7.7|
1,1,4.5|
1,2,9.4|
2,0,9.1|
2,1,2.8|
2,2,5.9|
];
constraint_x3_y3=[
0,0,2.8|
0,1,5.1|
0,2,3|
1,0,3.7|
1,1,3.7|
1,2,1.7|
2,0,9.4|
2,1,0.87|
2,2,9.3|
];
constraint_x4_y4=[
0,0,6.8|
0,1,2.4|
0,2,9.9|
1,0,8.4|
1,1,1.6|
1,2,9.2|
2,0,7.4|
2,1,6.9|
2,2,6|
];
constraint_x5_y5=[
0,0,2.1|
0,1,8.2|
0,2,9.7|
1,0,9.5|
1,1,3.4|
1,2,4.2|
2,0,1.9|
2,1,8.3|
2,2,2.3|
];
constraint_x6_y6=[
0,0,6.6|
0,1,9.7|
0,2,8.6|
1,0,1.4|
1,1,2.4|
1,2,9.2|
2,0,3.2|
2,1,7.2|
2,2,9.6|
];
constraint_x7_y7=[
0,0,5.4|
0,1,4.7|
0,2,5.1|
1,0,1.1|
1,1,9.4|
1,2,8.1|
2,0,5.7|
2,1,6.3|
2,2,6.5|
];
constraint_x8_y8=[
0,0,0.25|
0,1,6.4|
0,2,3.1|
1,0,3.4|
1,1,4.9|
1,2,7.9|
2,0,2.7|
2,1,9.3|
2,2,4.8|
];
constraint_x9_y9=[
0,0,4.1|
0,1,7.5|
0,2,4|
1,0,3|
1,1,0.85|
1,2,0.71|
2,0,8.7|
2,1,8.6|
2,2,2|
];
constraint_x10_y10=[
0,0,8.1|
0,1,8.4|
0,2,6.6|
1,0,1.4|
1,1,4.9|
1,2,7.2|
2,0,3.7|
2,1,0.77|
2,2,3.1|
];
constraint_x11_y11=[
0,0,6.3|
0,1,0.04|
0,2,6.5|
1,0,4.2|
1,1,6.1|
1,2,0.37|
2,0,9.8|
2,1,3.3|
2,2,7.1|
];
constraint_x12_y12=[
0,0,2.1|
0,1,3.5|
0,2,5.6|
1,0,2.2|
1,1,5.5|
1,2,7.8|
2,0,3.4|
2,1,5.3|
2,2,0.47|
];
initial_distribution_y1=[0.42,0.19,0.39];
initial_distribution_y2=[0.36,0.25,0.39];
initial_distribution_y3=[0.31,0.49,0.2];
initial_distribution_y4=[0.34,0.18,0.49];
initial_distribution_y5=[0.023,0.45,0.53];
initial_distribution_y6=[0.31,0.46,0.23];
initial_distribution_y7=[0.27,0.58,0.16];
initial_distribution_y8=[0.79,0.08,0.13];
initial_distribution_y9=[0.38,0.21,0.41];
initial_distribution_y10=[0.13,0.37,0.5];
initial_distribution_y11=[0.19,0.46,0.34];
initial_distribution_y12=[0.28,0.37,0.35];
transition_y1=[
0.49,0.29,0.22|
0.49,0.11,0.39|
0.08,0.57,0.35|
];
transition_y2=[
0.17,0.72,0.11|
0.33,0.33,0.34|
0.35,0.15,0.5|
];
transition_y3=[
0.29,0.46,0.25|
0.55,0.17,0.28|
0.27,0.41,0.32|
];
transition_y4=[
0.57,0.17,0.26|
0.44,0.058,0.5|
0.34,0.48,0.18|
];
transition_y5=[
0.29,0.28,0.42|
0.3,0.28,0.42|
0.5,0.27,0.22|
];
transition_y6=[
0.35,0.35,0.29|
0.45,0.51,0.035|
0.12,0.6,0.27|
];
transition_y7=[
0.15,0.31,0.55|
0.28,0.38,0.34|
0.38,0.16,0.46|
];
transition_y8=[
0.32,0.33,0.34|
0.48,0.12,0.4|
0.18,0.42,0.4|
];
transition_y9=[
0.34,0.32,0.33|
0.52,0.32,0.17|
0.53,0.063,0.4|
];
transition_y10=[
0.3,0.41,0.29|
0.19,0.41,0.41|
0.23,0.62,0.15|
];
transition_y11=[
0.76,0.048,0.19|
0.56,0.31,0.13|
0.3,0.035,0.66|
];
transition_y12=[
0.14,0.39,0.47|
0.34,0.39,0.27|
0.41,0.56,0.033|
];
